GLPSOL--GLPK LP/MIP Solver 5.0
Parameter(s) specified in the command line:
 --cpxlp --first inputs/new_tr/order/default30_default_input.lp -o solutions/new_tr/default30_default_input.lp
Reading problem data from 'inputs/new_tr/order/default30_default_input.lp'...
inputs/new_tr/order/default30_default_input.lp:4698: warning: lower bound of variable 'm_1_1' redefined
inputs/new_tr/order/default30_default_input.lp:4698: warning: upper bound of variable 'm_1_1' redefined
4329 rows, 1831 columns, 12785 non-zeros
1831 integer variables, 1469 of which are binary
6498 lines were read
GLPK Integer Optimizer 5.0
4329 rows, 1831 columns, 12785 non-zeros
1831 integer variables, 1469 of which are binary
Preprocessing...
191 hidden packing inequaliti(es) were detected
91 hidden covering inequaliti(es) were detected
408 constraint coefficient(s) were reduced
2306 rows, 921 columns, 6345 non-zeros
921 integer variables, 890 of which are binary
Scaling...
 A: min|aij| =  1.000e+00  max|aij| =  1.024e+04  ratio =  1.024e+04
GM: min|aij| =  4.273e-01  max|aij| =  2.340e+00  ratio =  5.477e+00
EQ: min|aij| =  1.826e-01  max|aij| =  1.000e+00  ratio =  5.477e+00
2N: min|aij| =  1.250e-01  max|aij| =  1.750e+00  ratio =  1.400e+01
Constructing initial basis...
Size of triangular part is 2102
Solving LP relaxation...
GLPK Simplex Optimizer 5.0
2306 rows, 921 columns, 6345 non-zeros
      0: obj =   2.560000000e+04 inf =   4.044e+02 (298)
    777: obj =   3.303909688e+04 inf =   7.633e-15 (0) 7
*   845: obj =   2.713600000e+04 inf =   4.370e-13 (0)
OPTIMAL LP SOLUTION FOUND
Integer optimization begins...
Long-step dual simplex will be used
+   845: mip =     not found yet >=              -inf        (1; 0)
+  1427: >>>>>   3.379200000e+04 >=   2.713600000e+04  19.7% (31; 2)
+  1652: >>>>>   3.174400000e+04 >=   2.713600000e+04  14.5% (48; 3)
+  2838: >>>>>   2.867200000e+04 >=   2.713600000e+04   5.4% (102; 20)
+ 31117: mip =   2.867200000e+04 >=   2.713600000e+04   5.4% (279; 2488)
+ 59364: mip =   2.867200000e+04 >=   2.713600000e+04   5.4% (481; 5019)
+ 86729: mip =   2.867200000e+04 >=   2.713600000e+04   5.4% (695; 7492)
+115018: mip =   2.867200000e+04 >=   2.713600000e+04   5.4% (918; 9969)
+139397: mip =   2.867200000e+04 >=   2.713600000e+04   5.4% (1173; 12246)
+166346: mip =   2.867200000e+04 >=   2.713600000e+04   5.4% (1447; 14400)
+191477: mip =   2.867200000e+04 >=   2.713600000e+04   5.4% (1581; 16875)
+218272: mip =   2.867200000e+04 >=   2.713600000e+04   5.4% (1740; 19155)
+247361: mip =   2.867200000e+04 >=   2.713600000e+04   5.4% (2026; 21677)
+275971: mip =   2.867200000e+04 >=   2.713600000e+04   5.4% (2277; 24326)
+305788: mip =   2.867200000e+04 >=   2.713600000e+04   5.4% (2673; 26401)
Time used: 60.0 secs.  Memory used: 22.5 Mb.
+334637: mip =   2.867200000e+04 >=   2.713600000e+04   5.4% (2949; 28648)
+363250: mip =   2.867200000e+04 >=   2.713600000e+04   5.4% (3208; 31068)
+389028: mip =   2.867200000e+04 >=   2.713600000e+04   5.4% (3520; 33313)
+415933: mip =   2.867200000e+04 >=   2.713600000e+04   5.4% (3796; 35506)
+443921: mip =   2.867200000e+04 >=   2.713600000e+04   5.4% (4069; 37849)
+471753: mip =   2.867200000e+04 >=   2.713600000e+04   5.4% (4438; 39917)
+497387: mip =   2.867200000e+04 >=   2.713600000e+04   5.4% (4606; 42308)
+521745: mip =   2.867200000e+04 >=   2.713600000e+04   5.4% (4801; 44568)
+545365: mip =   2.867200000e+04 >=   2.713600000e+04   5.4% (5054; 46620)
+567988: mip =   2.867200000e+04 >=   2.713600000e+04   5.4% (5354; 48412)
+590985: mip =   2.867200000e+04 >=   2.713600000e+04   5.4% (5523; 50437)
+612882: mip =   2.867200000e+04 >=   2.713600000e+04   5.4% (5700; 52468)
Time used: 120.0 secs.  Memory used: 39.7 Mb.
+637384: mip =   2.867200000e+04 >=   2.713600000e+04   5.4% (5975; 54470)
+659787: mip =   2.867200000e+04 >=   2.713600000e+04   5.4% (6178; 56383)
+678938: mip =   2.867200000e+04 >=   2.713600000e+04   5.4% (6328; 58225)
+700404: mip =   2.867200000e+04 >=   2.713600000e+04   5.4% (6566; 59897)
+721095: mip =   2.867200000e+04 >=   2.713600000e+04   5.4% (6763; 61796)
+741346: mip =   2.867200000e+04 >=   2.713600000e+04   5.4% (6913; 63692)
+761501: mip =   2.867200000e+04 >=   2.713600000e+04   5.4% (7120; 65470)
+783128: mip =   2.867200000e+04 >=   2.713600000e+04   5.4% (7389; 67006)
+804806: mip =   2.867200000e+04 >=   2.713600000e+04   5.4% (7581; 68753)
+823987: mip =   2.867200000e+04 >=   2.713600000e+04   5.4% (7755; 70545)
+844182: mip =   2.867200000e+04 >=   2.713600000e+04   5.4% (7914; 72282)
+863959: mip =   2.867200000e+04 >=   2.713600000e+04   5.4% (8212; 73838)
Time used: 180.0 secs.  Memory used: 53.7 Mb.
+883234: mip =   2.867200000e+04 >=   2.713600000e+04   5.4% (8418; 75379)
+900996: mip =   2.867200000e+04 >=   2.713600000e+04   5.4% (8535; 77075)
+920434: mip =   2.867200000e+04 >=   2.713600000e+04   5.4% (8750; 78587)
+937215: mip =   2.867200000e+04 >=   2.713600000e+04   5.4% (8845; 80308)
+955108: mip =   2.867200000e+04 >=   2.713600000e+04   5.4% (9023; 81784)
+972398: mip =   2.867200000e+04 >=   2.713600000e+04   5.4% (9141; 83252)
+987644: mip =   2.867200000e+04 >=   2.713600000e+04   5.4% (9246; 84744)
+1003333: mip =   2.867200000e+04 >=   2.713600000e+04   5.4% (9402; 86002)
+1018310: mip =   2.867200000e+04 >=   2.713600000e+04   5.4% (9519; 87381)
+1033696: mip =   2.867200000e+04 >=   2.713600000e+04   5.4% (9668; 88715)
+1047945: mip =   2.867200000e+04 >=   2.713600000e+04   5.4% (9777; 90063)
+1062466: mip =   2.867200000e+04 >=   2.713600000e+04   5.4% (9891; 91296)
Time used: 240.0 secs.  Memory used: 64.2 Mb.
+1077279: mip =   2.867200000e+04 >=   2.713600000e+04   5.4% (10065; 92549)
+1093347: mip =   2.867200000e+04 >=   2.713600000e+04   5.4% (10211; 93837)
+1109450: mip =   2.867200000e+04 >=   2.713600000e+04   5.4% (10411; 94951)
+1124918: mip =   2.867200000e+04 >=   2.713600000e+04   5.4% (10494; 96359)
+1140702: mip =   2.867200000e+04 >=   2.713600000e+04   5.4% (10607; 97618)
+1153393: mip =   2.867200000e+04 >=   2.713600000e+04   5.4% (10673; 98910)
+1170697: mip =   2.867200000e+04 >=   2.713600000e+04   5.4% (10844; 100259)
+1185787: mip =   2.867200000e+04 >=   2.713600000e+04   5.4% (10939; 101789)
+1206432: mip =   2.867200000e+04 >=   2.713600000e+04   5.4% (11289; 102811)
+1221315: mip =   2.867200000e+04 >=   2.713600000e+04   5.4% (11472; 104106)
+1235274: mip =   2.867200000e+04 >=   2.713600000e+04   5.4% (11588; 105468)
+1251217: mip =   2.867200000e+04 >=   2.713600000e+04   5.4% (11711; 106870)
Time used: 300.0 secs.  Memory used: 74.6 Mb.
+1266857: mip =   2.867200000e+04 >=   2.713600000e+04   5.4% (11840; 108277)
+1281921: mip =   2.867200000e+04 >=   2.713600000e+04   5.4% (12016; 109587)
+1297204: mip =   2.867200000e+04 >=   2.713600000e+04   5.4% (12181; 110831)
+1310143: mip =   2.867200000e+04 >=   2.713600000e+04   5.4% (12244; 112062)
+1323033: mip =   2.867200000e+04 >=   2.713600000e+04   5.4% (12365; 113216)
+1337108: mip =   2.867200000e+04 >=   2.713600000e+04   5.4% (12458; 114443)
+1352573: mip =   2.867200000e+04 >=   2.713600000e+04   5.4% (12616; 115535)
+1366800: mip =   2.867200000e+04 >=   2.713600000e+04   5.4% (12733; 116765)
+1379680: mip =   2.867200000e+04 >=   2.713600000e+04   5.4% (12814; 117909)
+1393531: mip =   2.867200000e+04 >=   2.713600000e+04   5.4% (12913; 119071)
+1407056: mip =   2.867200000e+04 >=   2.713600000e+04   5.4% (13042; 120257)
+1421232: mip =   2.867200000e+04 >=   2.713600000e+04   5.4% (13202; 121402)
Time used: 360.0 secs.  Memory used: 85.2 Mb.
+1436342: mip =   2.867200000e+04 >=   2.713600000e+04   5.4% (13438; 122410)
+1450980: mip =   2.867200000e+04 >=   2.713600000e+04   5.4% (13613; 123485)
+1462776: mip =   2.867200000e+04 >=   2.713600000e+04   5.4% (13632; 124855)
+1475187: mip =   2.867200000e+04 >=   2.713600000e+04   5.4% (13723; 126086)
+1488006: mip =   2.867200000e+04 >=   2.713600000e+04   5.4% (13889; 127168)
+1499887: mip =   2.867200000e+04 >=   2.713600000e+04   5.4% (13962; 128375)
+1513802: mip =   2.867200000e+04 >=   2.713600000e+04   5.4% (14041; 129526)
+1528394: mip =   2.867200000e+04 >=   2.713600000e+04   5.4% (14170; 130576)
+1542197: mip =   2.867200000e+04 >=   2.713600000e+04   5.4% (14325; 131626)
+1554355: mip =   2.867200000e+04 >=   2.713600000e+04   5.4% (14431; 132758)
+1567338: mip =   2.867200000e+04 >=   2.713600000e+04   5.4% (14541; 133821)
+1579145: mip =   2.867200000e+04 >=   2.713600000e+04   5.4% (14605; 134974)
Time used: 420.0 secs.  Memory used: 94.8 Mb.
+1593291: mip =   2.867200000e+04 >=   2.713600000e+04   5.4% (14722; 136052)
+1605764: mip =   2.867200000e+04 >=   2.713600000e+04   5.4% (14819; 137163)
+1620351: mip =   2.867200000e+04 >=   2.713600000e+04   5.4% (15015; 138110)
+1634860: mip =   2.867200000e+04 >=   2.713600000e+04   5.4% (15225; 139103)
+1647656: mip =   2.867200000e+04 >=   2.713600000e+04   5.4% (15396; 140162)
+1658830: mip =   2.867200000e+04 >=   2.713600000e+04   5.4% (15399; 141329)
+1671024: mip =   2.867200000e+04 >=   2.713600000e+04   5.4% (15505; 142414)
+1684164: mip =   2.867200000e+04 >=   2.713600000e+04   5.4% (15621; 143494)
+1695000: mip =   2.867200000e+04 >=   2.713600000e+04   5.4% (15707; 144631)
+1707008: mip =   2.867200000e+04 >=   2.713600000e+04   5.4% (15845; 145617)
+1718539: mip =   2.867200000e+04 >=   2.713600000e+04   5.4% (15957; 146699)
+1728880: mip =   2.867200000e+04 >=   2.713600000e+04   5.4% (15954; 147911)
Time used: 480.0 secs.  Memory used: 103.1 Mb.
+1741325: mip =   2.867200000e+04 >=   2.713600000e+04   5.4% (16070; 148924)
+1752345: mip =   2.867200000e+04 >=   2.713600000e+04   5.4% (16132; 150014)
+1763010: mip =   2.867200000e+04 >=   2.713600000e+04   5.4% (16160; 151133)
+1776377: mip =   2.867200000e+04 >=   2.713600000e+04   5.4% (16374; 152047)
+1787523: mip =   2.867200000e+04 >=   2.713600000e+04   5.4% (16499; 153029)
+1798356: mip =   2.867200000e+04 >=   2.713600000e+04   5.4% (16579; 154082)
+1807913: mip =   2.867200000e+04 >=   2.713600000e+04   5.4% (16575; 155267)
+1819505: mip =   2.867200000e+04 >=   2.713600000e+04   5.4% (16697; 156237)
+1831662: mip =   2.867200000e+04 >=   2.713600000e+04   5.4% (16802; 157234)
+1842596: mip =   2.867200000e+04 >=   2.713600000e+04   5.4% (16880; 158284)
+1854385: mip =   2.867200000e+04 >=   2.713600000e+04   5.4% (16997; 159234)
+1865490: mip =   2.867200000e+04 >=   2.713600000e+04   5.4% (17082; 160192)
Time used: 540.0 secs.  Memory used: 110.2 Mb.
+1877572: mip =   2.867200000e+04 >=   2.713600000e+04   5.4% (17151; 161122)
+1887665: mip =   2.867200000e+04 >=   2.713600000e+04   5.4% (17225; 162111)
+1898897: mip =   2.867200000e+04 >=   2.713600000e+04   5.4% (17300; 163068)
+1911018: mip =   2.867200000e+04 >=   2.713600000e+04   5.4% (17416; 164007)
+1924016: mip =   2.867200000e+04 >=   2.713600000e+04   5.4% (17619; 164915)
+1939471: mip =   2.867200000e+04 >=   2.713600000e+04   5.4% (17837; 165665)
+1952782: mip =   2.867200000e+04 >=   2.713600000e+04   5.4% (18070; 166381)
+1964766: mip =   2.867200000e+04 >=   2.713600000e+04   5.4% (18149; 167282)
+1976675: mip =   2.867200000e+04 >=   2.713600000e+04   5.4% (18288; 168096)
+1987122: mip =   2.867200000e+04 >=   2.713600000e+04   5.4% (18358; 168975)
+1997849: mip =   2.867200000e+04 >=   2.713600000e+04   5.4% (18454; 169924)
+2008751: mip =   2.867200000e+04 >=   2.713600000e+04   5.4% (18554; 170854)
Time used: 600.0 secs.  Memory used: 119.8 Mb.
+2018888: mip =   2.867200000e+04 >=   2.713600000e+04   5.4% (18638; 171799)
+2028877: mip =   2.867200000e+04 >=   2.713600000e+04   5.4% (18689; 172799)
+2039474: mip =   2.867200000e+04 >=   2.713600000e+04   5.4% (18750; 173766)
+2048974: mip =   2.867200000e+04 >=   2.713600000e+04   5.4% (18807; 174784)
+2058017: mip =   2.867200000e+04 >=   2.713600000e+04   5.4% (18876; 175850)
+2067951: mip =   2.867200000e+04 >=   2.713600000e+04   5.4% (18951; 176792)
+2078133: mip =   2.867200000e+04 >=   2.713600000e+04   5.4% (19151; 177533)
+2087135: mip =   2.867200000e+04 >=   2.713600000e+04   5.4% (19192; 178456)
+2095766: mip =   2.867200000e+04 >=   2.713600000e+04   5.4% (19282; 179374)
+2106577: mip =   2.867200000e+04 >=   2.713600000e+04   5.4% (19368; 180278)
+2117138: mip =   2.867200000e+04 >=   2.713600000e+04   5.4% (19414; 181225)
+2126726: mip =   2.867200000e+04 >=   2.713600000e+04   5.4% (19467; 182186)
Time used: 660.0 secs.  Memory used: 125.2 Mb.
+2135177: mip =   2.867200000e+04 >=   2.713600000e+04   5.4% (19552; 183179)
+2144337: mip =   2.867200000e+04 >=   2.713600000e+04   5.4% (19627; 184179)
+2154896: mip =   2.867200000e+04 >=   2.713600000e+04   5.4% (19760; 185105)
+2165929: mip =   2.867200000e+04 >=   2.713600000e+04   5.4% (19901; 185979)
+2176408: mip =   2.867200000e+04 >=   2.713600000e+04   5.4% (19945; 186930)
+2186304: mip =   2.867200000e+04 >=   2.713600000e+04   5.4% (20028; 187854)
+2197027: mip =   2.867200000e+04 >=   2.713600000e+04   5.4% (20111; 188716)
+2206486: mip =   2.867200000e+04 >=   2.713600000e+04   5.4% (20207; 189659)
+2216214: mip =   2.867200000e+04 >=   2.713600000e+04   5.4% (20317; 190572)
+2226975: mip =   2.867200000e+04 >=   2.713600000e+04   5.4% (20410; 191477)
+2236796: mip =   2.867200000e+04 >=   2.713600000e+04   5.4% (20457; 192431)
+2246479: mip =   2.867200000e+04 >=   2.713600000e+04   5.4% (20515; 193390)
Time used: 720.0 secs.  Memory used: 130.7 Mb.
+2256205: mip =   2.867200000e+04 >=   2.713600000e+04   5.4% (20616; 194312)
+2266113: mip =   2.867200000e+04 >=   2.713600000e+04   5.4% (20688; 195253)
+2276203: mip =   2.867200000e+04 >=   2.713600000e+04   5.4% (20794; 196171)
+2286273: mip =   2.867200000e+04 >=   2.713600000e+04   5.4% (20870; 197092)
+2296636: mip =   2.867200000e+04 >=   2.713600000e+04   5.4% (20963; 197957)
+2307638: mip =   2.867200000e+04 >=   2.713600000e+04   5.4% (21137; 198742)
+2317900: mip =   2.867200000e+04 >=   2.713600000e+04   5.4% (21219; 199602)
+2328128: mip =   2.867200000e+04 >=   2.713600000e+04   5.4% (21302; 200459)
+2337669: mip =   2.867200000e+04 >=   2.713600000e+04   5.4% (21415; 201296)
+2347447: mip =   2.867200000e+04 >=   2.713600000e+04   5.4% (21475; 202174)
+2357067: mip =   2.867200000e+04 >=   2.713600000e+04   5.4% (21599; 202975)
+2365784: mip =   2.867200000e+04 >=   2.713600000e+04   5.4% (21707; 203747)
Time used: 780.0 secs.  Memory used: 137.2 Mb.
+2375339: mip =   2.867200000e+04 >=   2.713600000e+04   5.4% (21783; 204580)
+2384377: mip =   2.867200000e+04 >=   2.713600000e+04   5.4% (21812; 205515)
+2393514: mip =   2.867200000e+04 >=   2.713600000e+04   5.4% (21885; 206390)
+2404652: mip =   2.867200000e+04 >=   2.713600000e+04   5.4% (22079; 207167)
+2413276: mip =   2.867200000e+04 >=   2.713600000e+04   5.4% (22152; 208086)
+2422435: mip =   2.867200000e+04 >=   2.713600000e+04   5.4% (22206; 208934)
+2432095: mip =   2.867200000e+04 >=   2.713600000e+04   5.4% (22268; 209784)
+2441364: mip =   2.867200000e+04 >=   2.713600000e+04   5.4% (22333; 210675)
+2451486: mip =   2.867200000e+04 >=   2.713600000e+04   5.4% (22421; 211525)
+2461234: mip =   2.867200000e+04 >=   2.713600000e+04   5.4% (22541; 212304)
+2471190: mip =   2.867200000e+04 >=   2.713600000e+04   5.4% (22640; 213077)
+2481002: mip =   2.867200000e+04 >=   2.713600000e+04   5.4% (22766; 213826)
Time used: 840.1 secs.  Memory used: 142.9 Mb.
+2490497: mip =   2.867200000e+04 >=   2.713600000e+04   5.4% (22807; 214717)
+2500290: mip =   2.867200000e+04 >=   2.713600000e+04   5.4% (22901; 215508)
+2508966: mip =   2.867200000e+04 >=   2.713600000e+04   5.4% (23012; 216302)
+2519249: mip =   2.867200000e+04 >=   2.713600000e+04   5.4% (23087; 217100)
+2528588: mip =   2.867200000e+04 >=   2.713600000e+04   5.4% (23180; 217922)
+2538429: mip =   2.867200000e+04 >=   2.713600000e+04   5.4% (23308; 218705)
+2546339: mip =   2.867200000e+04 >=   2.713600000e+04   5.4% (23338; 219592)
+2554590: mip =   2.867200000e+04 >=   2.713600000e+04   5.4% (23376; 220478)
+2563251: mip =   2.867200000e+04 >=   2.713600000e+04   5.4% (23443; 221303)
+2572391: mip =   2.867200000e+04 >=   2.713600000e+04   5.4% (23544; 222108)
+2580462: mip =   2.867200000e+04 >=   2.713600000e+04   5.4% (23554; 223020)
+2588631: mip =   2.867200000e+04 >=   2.713600000e+04   5.4% (23595; 223862)
Time used: 900.1 secs.  Memory used: 147.3 Mb.
+2597707: mip =   2.867200000e+04 >=   2.713600000e+04   5.4% (23665; 224631)
+2606133: mip =   2.867200000e+04 >=   2.713600000e+04   5.4% (23727; 225402)
+2615425: mip =   2.867200000e+04 >=   2.713600000e+04   5.4% (23890; 226119)
+2624103: mip =   2.867200000e+04 >=   2.713600000e+04   5.4% (23908; 226960)
+2632031: mip =   2.867200000e+04 >=   2.713600000e+04   5.4% (23956; 227814)
+2640232: mip =   2.867200000e+04 >=   2.713600000e+04   5.4% (24027; 228586)
+2649144: mip =   2.867200000e+04 >=   2.713600000e+04   5.4% (24118; 229342)
+2658739: mip =   2.867200000e+04 >=   2.713600000e+04   5.4% (24222; 230119)
+2666935: mip =   2.867200000e+04 >=   2.713600000e+04   5.4% (24284; 230946)
+2675115: mip =   2.867200000e+04 >=   2.713600000e+04   5.4% (24356; 231724)
+2683500: mip =   2.867200000e+04 >=   2.713600000e+04   5.4% (24466; 232495)
+2690721: mip =   2.867200000e+04 >=   2.713600000e+04   5.4% (24460; 233390)
Time used: 960.1 secs.  Memory used: 152.2 Mb.
+2700037: mip =   2.867200000e+04 >=   2.713600000e+04   5.4% (24520; 234179)
+2707387: mip =   2.867200000e+04 >=   2.713600000e+04   5.4% (24587; 234928)
+2714776: mip =   2.867200000e+04 >=   2.713600000e+04   5.4% (24651; 235664)
+2722321: mip =   2.867200000e+04 >=   2.713600000e+04   5.4% (24680; 236439)
+2731672: mip =   2.867200000e+04 >=   2.713600000e+04   5.4% (24771; 237228)
+2740316: mip =   2.867200000e+04 >=   2.713600000e+04   5.4% (24858; 237999)
+2748952: mip =   2.867200000e+04 >=   2.713600000e+04   5.4% (24875; 238853)
+2756915: mip =   2.867200000e+04 >=   2.713600000e+04   5.4% (24976; 239622)
+2765473: mip =   2.867200000e+04 >=   2.713600000e+04   5.4% (25080; 240393)
+2774562: mip =   2.867200000e+04 >=   2.713600000e+04   5.4% (25108; 241235)
+2783164: mip =   2.867200000e+04 >=   2.713600000e+04   5.4% (25195; 242067)
+2791792: mip =   2.867200000e+04 >=   2.713600000e+04   5.4% (25257; 242876)
Time used: 1020.1 secs.  Memory used: 157.9 Mb.
+2799404: mip =   2.867200000e+04 >=   2.713600000e+04   5.4% (25334; 243642)
+2806756: mip =   2.867200000e+04 >=   2.713600000e+04   5.4% (25368; 244424)
+2817526: mip =   2.867200000e+04 >=   2.713600000e+04   5.4% (25574; 245108)
+2826003: mip =   2.867200000e+04 >=   2.713600000e+04   5.4% (25680; 245844)
+2834919: mip =   2.867200000e+04 >=   2.713600000e+04   5.4% (25816; 246577)
+2843998: mip =   2.867200000e+04 >=   2.713600000e+04   5.4% (25943; 247307)
+2854383: mip =   2.867200000e+04 >=   2.713600000e+04   5.4% (26142; 247939)
+2863557: mip =   2.867200000e+04 >=   2.713600000e+04   5.4% (26258; 248674)
+2872229: mip =   2.867200000e+04 >=   2.713600000e+04   5.4% (26363; 249421)
+2882479: mip =   2.867200000e+04 >=   2.713600000e+04   5.4% (26515; 250066)
+2891306: mip =   2.867200000e+04 >=   2.713600000e+04   5.4% (26597; 250845)
+2899750: mip =   2.867200000e+04 >=   2.713600000e+04   5.4% (26673; 251610)
Time used: 1080.1 secs.  Memory used: 164.6 Mb.
+2907148: mip =   2.867200000e+04 >=   2.713600000e+04   5.4% (26723; 252386)
+2915529: mip =   2.867200000e+04 >=   2.713600000e+04   5.4% (26776; 253174)
+2924142: mip =   2.867200000e+04 >=   2.713600000e+04   5.4% (26836; 253917)
+2932855: mip =   2.867200000e+04 >=   2.713600000e+04   5.4% (26921; 254604)
+2941499: mip =   2.867200000e+04 >=   2.713600000e+04   5.4% (27012; 255348)
+2949819: mip =   2.867200000e+04 >=   2.713600000e+04   5.4% (27092; 256091)
+2957550: mip =   2.867200000e+04 >=   2.713600000e+04   5.4% (27183; 256831)
+2965300: mip =   2.867200000e+04 >=   2.713600000e+04   5.4% (27238; 257656)
+2973707: mip =   2.867200000e+04 >=   2.713600000e+04   5.4% (27317; 258371)
+2981921: mip =   2.867200000e+04 >=   2.713600000e+04   5.4% (27435; 259084)
+2990377: mip =   2.867200000e+04 >=   2.713600000e+04   5.4% (27527; 259773)
+2997895: mip =   2.867200000e+04 >=   2.713600000e+04   5.4% (27608; 260499)
Time used: 1140.1 secs.  Memory used: 169.9 Mb.
+3004964: mip =   2.867200000e+04 >=   2.713600000e+04   5.4% (27670; 261305)
+3011994: mip =   2.867200000e+04 >=   2.713600000e+04   5.4% (27702; 262104)
+3019729: mip =   2.867200000e+04 >=   2.713600000e+04   5.4% (27795; 262871)
+3027713: mip =   2.867200000e+04 >=   2.713600000e+04   5.4% (27842; 263655)
+3034094: mip =   2.867200000e+04 >=   2.713600000e+04   5.4% (27887; 264426)
+3041534: mip =   2.867200000e+04 >=   2.713600000e+04   5.4% (27954; 265188)
+3049479: mip =   2.867200000e+04 >=   2.713600000e+04   5.4% (28011; 265956)
+3057028: mip =   2.867200000e+04 >=   2.713600000e+04   5.4% (28044; 266735)
+3063752: mip =   2.867200000e+04 >=   2.713600000e+04   5.4% (28111; 267419)
+3070518: mip =   2.867200000e+04 >=   2.713600000e+04   5.4% (28158; 268161)
+3077830: mip =   2.867200000e+04 >=   2.713600000e+04   5.4% (28209; 268871)
+3086301: mip =   2.867200000e+04 >=   2.713600000e+04   5.4% (28324; 269538)
Time used: 1200.1 secs.  Memory used: 174.0 Mb.
+3094896: mip =   2.867200000e+04 >=   2.713600000e+04   5.4% (28414; 270212)
+3102902: mip =   2.867200000e+04 >=   2.713600000e+04   5.4% (28469; 270924)
+3110021: mip =   2.867200000e+04 >=   2.713600000e+04   5.4% (28536; 271602)
+3119692: mip =   2.867200000e+04 >=   2.713600000e+04   5.4% (28692; 272237)
+3128370: mip =   2.867200000e+04 >=   2.713600000e+04   5.4% (28759; 272927)
+3136658: mip =   2.867200000e+04 >=   2.713600000e+04   5.4% (28814; 273627)
+3144623: mip =   2.867200000e+04 >=   2.713600000e+04   5.4% (28877; 274353)
+3153114: mip =   2.867200000e+04 >=   2.713600000e+04   5.4% (28969; 275038)
+3161624: mip =   2.867200000e+04 >=   2.713600000e+04   5.4% (29052; 275733)
+3168823: mip =   2.867200000e+04 >=   2.713600000e+04   5.4% (29114; 276440)
+3176161: mip =   2.867200000e+04 >=   2.713600000e+04   5.4% (29162; 277134)
+3184724: mip =   2.867200000e+04 >=   2.713600000e+04   5.4% (29245; 277806)
Time used: 1260.1 secs.  Memory used: 179.7 Mb.
+3193055: mip =   2.867200000e+04 >=   2.713600000e+04   5.4% (29332; 278505)
+3200890: mip =   2.867200000e+04 >=   2.713600000e+04   5.4% (29425; 279197)
+3207774: mip =   2.867200000e+04 >=   2.713600000e+04   5.4% (29500; 279855)
+3215549: mip =   2.867200000e+04 >=   2.713600000e+04   5.4% (29551; 280541)
+3222580: mip =   2.867200000e+04 >=   2.713600000e+04   5.4% (29594; 281233)
+3229576: mip =   2.867200000e+04 >=   2.713600000e+04   5.4% (29633; 281942)
+3237106: mip =   2.867200000e+04 >=   2.713600000e+04   5.4% (29719; 282602)
+3244720: mip =   2.867200000e+04 >=   2.713600000e+04   5.4% (29788; 283254)
+3251534: mip =   2.867200000e+04 >=   2.713600000e+04   5.4% (29845; 283939)
+3260492: mip =   2.867200000e+04 >=   2.713600000e+04   5.4% (30007; 284536)
+3268002: mip =   2.867200000e+04 >=   2.713600000e+04   5.4% (30053; 285247)
+3276358: mip =   2.867200000e+04 >=   2.713600000e+04   5.4% (30142; 285890)
Time used: 1320.1 secs.  Memory used: 184.4 Mb.
+3283538: mip =   2.867200000e+04 >=   2.713600000e+04   5.4% (30199; 286554)
+3290697: mip =   2.867200000e+04 >=   2.713600000e+04   5.4% (30265; 287208)
+3298951: mip =   2.867200000e+04 >=   2.713600000e+04   5.4% (30446; 287764)
+3305818: mip =   2.867200000e+04 >=   2.713600000e+04   5.4% (30519; 288395)
+3313323: mip =   2.867200000e+04 >=   2.713600000e+04   5.4% (30591; 289012)
+3320718: mip =   2.867200000e+04 >=   2.713600000e+04   5.4% (30674; 289638)
+3329343: mip =   2.867200000e+04 >=   2.713600000e+04   5.4% (30825; 290187)
+3337770: mip =   2.867200000e+04 >=   2.713600000e+04   5.4% (30899; 290821)
+3345352: mip =   2.867200000e+04 >=   2.713600000e+04   5.4% (30970; 291437)
+3352592: mip =   2.867200000e+04 >=   2.713600000e+04   5.4% (31019; 292122)
+3360950: mip =   2.867200000e+04 >=   2.713600000e+04   5.4% (31090; 292774)
+3368359: mip =   2.867200000e+04 >=   2.713600000e+04   5.4% (31149; 293453)
Time used: 1380.1 secs.  Memory used: 189.8 Mb.
+3375972: mip =   2.867200000e+04 >=   2.713600000e+04   5.4% (31209; 294156)
+3383198: mip =   2.867200000e+04 >=   2.713600000e+04   5.4% (31250; 294877)
+3390333: mip =   2.867200000e+04 >=   2.713600000e+04   5.4% (31303; 295534)
+3397823: mip =   2.867200000e+04 >=   2.713600000e+04   5.4% (31393; 296153)
+3404863: mip =   2.867200000e+04 >=   2.713600000e+04   5.4% (31446; 296807)
+3412220: mip =   2.867200000e+04 >=   2.713600000e+04   5.4% (31528; 297453)
+3419384: mip =   2.867200000e+04 >=   2.713600000e+04   5.4% (31601; 298070)
+3427139: mip =   2.867200000e+04 >=   2.713600000e+04   5.4% (31677; 298702)
+3434392: mip =   2.867200000e+04 >=   2.713600000e+04   5.4% (31718; 299374)
+3440512: mip =   2.867200000e+04 >=   2.713600000e+04   5.4% (31733; 300033)
+3446593: mip =   2.867200000e+04 >=   2.713600000e+04   5.4% (31761; 300713)
+3456835: mip =   2.867200000e+04 >=   2.713600000e+04   5.4% (31936; 301236)
Time used: 1440.1 secs.  Memory used: 193.9 Mb.
+3464251: mip =   2.867200000e+04 >=   2.713600000e+04   5.4% (31996; 301892)
+3472270: mip =   2.867200000e+04 >=   2.713600000e+04   5.4% (32084; 302551)
+3480204: mip =   2.867200000e+04 >=   2.713600000e+04   5.4% (32176; 303182)
+3487208: mip =   2.867200000e+04 >=   2.713600000e+04   5.4% (32214; 303844)
+3493358: mip =   2.867200000e+04 >=   2.713600000e+04   5.4% (32267; 304485)
+3500363: mip =   2.867200000e+04 >=   2.713600000e+04   5.4% (32349; 305128)
+3507330: mip =   2.867200000e+04 >=   2.713600000e+04   5.4% (32379; 305822)
+3514452: mip =   2.867200000e+04 >=   2.713600000e+04   5.4% (32433; 306469)
+3521629: mip =   2.867200000e+04 >=   2.713600000e+04   5.4% (32485; 307113)
+3529418: mip =   2.867200000e+04 >=   2.713600000e+04   5.4% (32549; 307761)
+3536983: mip =   2.867200000e+04 >=   2.713600000e+04   5.4% (32594; 308445)
+3544136: mip =   2.867200000e+04 >=   2.713600000e+04   5.4% (32650; 309060)
Time used: 1500.1 secs.  Memory used: 197.7 Mb.
+3552439: mip =   2.867200000e+04 >=   2.713600000e+04   5.4% (32765; 309661)
+3559350: mip =   2.867200000e+04 >=   2.713600000e+04   5.4% (32810; 310319)
+3565832: mip =   2.867200000e+04 >=   2.713600000e+04   5.4% (32827; 310992)
+3572619: mip =   2.867200000e+04 >=   2.713600000e+04   5.4% (32870; 311645)
+3578994: mip =   2.867200000e+04 >=   2.713600000e+04   5.4% (32900; 312313)
+3586321: mip =   2.867200000e+04 >=   2.713600000e+04   5.4% (32993; 312942)
+3593241: mip =   2.867200000e+04 >=   2.713600000e+04   5.4% (33017; 313617)
+3599866: mip =   2.867200000e+04 >=   2.713600000e+04   5.4% (33069; 314257)
+3607218: mip =   2.867200000e+04 >=   2.713600000e+04   5.4% (33154; 314866)
+3614265: mip =   2.867200000e+04 >=   2.713600000e+04   5.4% (33203; 315485)
+3621447: mip =   2.867200000e+04 >=   2.713600000e+04   5.4% (33228; 316113)
+3629079: mip =   2.867200000e+04 >=   2.713600000e+04   5.4% (33313; 316713)
Time used: 1560.1 secs.  Memory used: 201.4 Mb.
+3636219: mip =   2.867200000e+04 >=   2.713600000e+04   5.4% (33368; 317329)
+3643711: mip =   2.867200000e+04 >=   2.713600000e+04   5.4% (33400; 317959)
+3651349: mip =   2.867200000e+04 >=   2.713600000e+04   5.4% (33485; 318530)
+3659254: mip =   2.867200000e+04 >=   2.713600000e+04   5.4% (33586; 319121)
+3666282: mip =   2.867200000e+04 >=   2.713600000e+04   5.4% (33664; 319725)
+3673510: mip =   2.867200000e+04 >=   2.713600000e+04   5.4% (33752; 320357)
+3681052: mip =   2.867200000e+04 >=   2.713600000e+04   5.4% (33833; 320935)
+3688348: mip =   2.867200000e+04 >=   2.713600000e+04   5.4% (33920; 321526)
+3695416: mip =   2.867200000e+04 >=   2.713600000e+04   5.4% (33967; 322169)
+3702732: mip =   2.867200000e+04 >=   2.713600000e+04   5.4% (34019; 322763)
+3710883: mip =   2.867200000e+04 >=   2.713600000e+04   5.4% (34129; 323302)
+3718679: mip =   2.867200000e+04 >=   2.713600000e+04   5.4% (34210; 323915)
Time used: 1620.1 secs.  Memory used: 206.5 Mb.
+3725766: mip =   2.867200000e+04 >=   2.713600000e+04   5.4% (34277; 324523)
+3732571: mip =   2.867200000e+04 >=   2.713600000e+04   5.4% (34349; 325102)
+3739017: mip =   2.867200000e+04 >=   2.713600000e+04   5.4% (34409; 325693)
+3747007: mip =   2.867200000e+04 >=   2.713600000e+04   5.4% (34523; 326248)
+3754077: mip =   2.867200000e+04 >=   2.713600000e+04   5.4% (34587; 326857)
+3761163: mip =   2.867200000e+04 >=   2.713600000e+04   5.4% (34670; 327418)
+3769135: mip =   2.867200000e+04 >=   2.713600000e+04   5.4% (34785; 327998)
+3776427: mip =   2.867200000e+04 >=   2.713600000e+04   5.4% (34833; 328649)
+3784405: mip =   2.867200000e+04 >=   2.713600000e+04   5.4% (34917; 329231)
+3791230: mip =   2.867200000e+04 >=   2.713600000e+04   5.4% (34957; 329870)
+3799668: mip =   2.867200000e+04 >=   2.713600000e+04   5.4% (35064; 330457)
+3807222: mip =   2.867200000e+04 >=   2.713600000e+04   5.4% (35160; 331019)
Time used: 1680.1 secs.  Memory used: 211.5 Mb.
+3814143: mip =   2.867200000e+04 >=   2.713600000e+04   5.4% (35228; 331651)
+3820560: mip =   2.867200000e+04 >=   2.713600000e+04   5.4% (35257; 332285)
+3828254: mip =   2.867200000e+04 >=   2.713600000e+04   5.4% (35350; 332834)
+3835543: mip =   2.867200000e+04 >=   2.713600000e+04   5.4% (35457; 333341)
+3842964: mip =   2.867200000e+04 >=   2.713600000e+04   5.4% (35534; 333927)
+3849471: mip =   2.867200000e+04 >=   2.713600000e+04   5.4% (35564; 334547)
+3856064: mip =   2.867200000e+04 >=   2.713600000e+04   5.4% (35593; 335181)
+3862730: mip =   2.867200000e+04 >=   2.713600000e+04   5.4% (35639; 335774)
+3869932: mip =   2.867200000e+04 >=   2.713600000e+04   5.4% (35720; 336339)
+3877174: mip =   2.867200000e+04 >=   2.713600000e+04   5.4% (35791; 336930)
+3883869: mip =   2.867200000e+04 >=   2.713600000e+04   5.4% (35836; 337552)
+3890327: mip =   2.867200000e+04 >=   2.713600000e+04   5.4% (35886; 338139)
Time used: 1740.1 secs.  Memory used: 215.9 Mb.
+3896973: mip =   2.867200000e+04 >=   2.713600000e+04   5.4% (35945; 338751)
+3903671: mip =   2.867200000e+04 >=   2.713600000e+04   5.4% (36019; 339360)
+3909472: mip =   2.867200000e+04 >=   2.713600000e+04   5.4% (36050; 339983)
+3915621: mip =   2.867200000e+04 >=   2.713600000e+04   5.4% (36151; 340549)
+3921612: mip =   2.867200000e+04 >=   2.713600000e+04   5.4% (36196; 341171)
+3930418: mip =   2.867200000e+04 >=   2.713600000e+04   5.4% (36389; 341621)
+3936751: mip =   2.867200000e+04 >=   2.713600000e+04   5.4% (36446; 342189)
+3943066: mip =   2.867200000e+04 >=   2.713600000e+04   5.4% (36492; 342786)
+3948953: mip =   2.867200000e+04 >=   2.713600000e+04   5.4% (36528; 343375)
+3955355: mip =   2.867200000e+04 >=   2.713600000e+04   5.4% (36575; 343963)
+3961762: mip =   2.867200000e+04 >=   2.713600000e+04   5.4% (36639; 344535)
+3967795: mip =   2.867200000e+04 >=   2.713600000e+04   5.4% (36683; 345141)
